20	5
0	11	12	3	4	16	1	5	17	7	2	19	6
1	1	14
2	1	10
3	1	20
4	1	9
5	2	8	9
6	0
7	1	8
8	1	13
9	2	14	18
10	1	20
11	0
12	1	16
13	0
14	1	15
15	1	11
16	1	8
17	0
18	1	15
19	1	12
20	1	21
21	0
0	0	0	0	0	0	0
1	9	3	2	4	4	4
2	3	2	1	4	5	4
3	1	1	0	0	2	0
4	5	5	2	3	2	4
5	2	2	2	0	2	0
6	5	3	4	4	0	0
7	10	0	0	0	2	0
8	9	0	0	1	0	2
9	4	2	2	3	0	3
10	8	1	3	5	4	1
11	2	1	1	5	4	4
12	10	2	2	2	4	4
13	6	3	1	0	0	3
14	10	1	4	2	3	5
15	4	2	1	0	0	2
16	5	1	1	5	2	5
17	10	3	4	0	3	2
18	7	1	2	3	5	0
19	2	2	3	0	5	0
20	9	3	1	0	2	0
21	0	0	0	0	0	0
13	12	10	15	10
